NAME : s-24_t.-573.tour
COMMENT : Length = -573
COMMENT : Found by LKH [Keld Helsgaun] Sun Apr 13 17:05:02 2025
TYPE : TOUR
DIMENSION : 24
TOUR_SECTION
1
3
15
2
9
13
11
7
24
16
12
18
20
10
17
22
23
6
4
14
5
21
8
19
-1
EOF
